
Gurobi 7.5.2 (linux64) logging started Sat Jun 23 16:30:58 2018

Changed value of parameter LogFile to result/ilp/simNo_6-n_100-m_40-s_7-minVAF_0.05-cov_2000-k_1-fn_0.15-fp_0.0001-na_0.15.ILP.gurobiSolverLog
   Prev: gurobi.log  Default: 
Changed value of parameter TimeLimit to 86400.0
   Prev: 1e+100  Min: 0.0  Max: 1e+100  Default: 1e+100
Optimize a model with 1265601 rows, 330440 columns and 3489120 nonzeros
Variable types: 0 continuous, 330440 integer (330440 binary)
Coefficient statistics:
  Matrix range     [8e-04, 3e+00]
  Objective range  [2e+00, 1e+01]
  Bounds range     [1e+00, 1e+00]
  RHS range        [8e-02, 2e+00]
Found heuristic solution: objective -10892.32962
Presolve removed 390108 rows and 225366 columns (presolve time = 5s) ...
Presolve removed 391290 rows and 225366 columns (presolve time = 10s) ...
Presolve removed 391290 rows and 225366 columns (presolve time = 17s) ...
Presolve removed 391290 rows and 225366 columns (presolve time = 21s) ...
Presolve removed 391290 rows and 225366 columns (presolve time = 29s) ...
Presolve removed 391290 rows and 225366 columns (presolve time = 31s) ...
Presolve removed 391290 rows and 225366 columns
Presolve time: 30.77s
Presolved: 874311 rows, 105074 columns, 2433013 nonzeros
Variable types: 0 continuous, 105074 integer (105074 binary)
Presolved: 105074 rows, 979385 columns, 2538087 nonzeros

Presolve removed 105074 rows and 979385 columns

Root simplex log...

Iteration    Objective       Primal Inf.    Dual Inf.      Time
       0    1.3553265e+01   0.000000e+00   7.739800e+04     40s
   22904   -2.5262310e+02   0.000000e+00   9.881812e+04     45s
   29972   -2.7111549e+02   0.000000e+00   0.000000e+00     49s
   29972   -2.7111549e+02   0.000000e+00   0.000000e+00     51s

Root relaxation: objective -2.711155e+02, 29972 iterations, 16.54 seconds
Total elapsed time = 79.53s
Total elapsed time = 86.05s
Total elapsed time = 93.59s

    Nodes    |    Current Node    |     Objective Bounds      |     Work
 Expl Unexpl |  Obj  Depth IntInf | Incumbent    BestBd   Gap | It/Node Time

     0     0 -271.11549    0  645 -10892.330 -271.11549  97.5%     -  100s
H    0     0                    -286.9200745 -271.11549  5.51%     -  114s
     0     0 -274.91526    0  391 -286.92007 -274.91526  4.18%     -  142s
H    0     0                    -286.8207088 -274.91526  4.15%     -  153s
     0     0 -277.61018    0  385 -286.82071 -277.61018  3.21%     -  176s
     0     0 -277.62618    0  686 -286.82071 -277.62618  3.21%     -  194s
     0     0 -277.63530    0  687 -286.82071 -277.63530  3.20%     -  206s
     0     0 -279.70704    0  397 -286.82071 -279.70704  2.48%     -  223s
H    0     0                    -285.0782430 -279.70704  1.88%     -  230s
     0     0 -279.70704    0  398 -285.07824 -279.70704  1.88%     -  237s
     0     0 -280.14265    0  351 -285.07824 -280.14265  1.73%     -  254s
     0     0 -280.14265    0  336 -285.07824 -280.14265  1.73%     -  267s
     0     0 -280.56353    0  654 -285.07824 -280.56353  1.58%     -  284s
     0     0 -280.70873    0  655 -285.07824 -280.70873  1.53%     -  299s
     0     0 -280.70873    0  655 -285.07824 -280.70873  1.53%     -  308s
     0     0 -281.11872    0  710 -285.07824 -281.11872  1.39%     -  323s
     0     0 -281.13497    0  715 -285.07824 -281.13497  1.38%     -  336s
     0     0 -281.22432    0  699 -285.07824 -281.22432  1.35%     -  354s
     0     0 -281.88512    0  378 -285.07824 -281.88512  1.12%     -  371s
     0     0 -281.88512    0  389 -285.07824 -281.88512  1.12%     -  380s
     0     0 -282.46454    0  189 -285.07824 -282.46454  0.92%     -  395s
     0     0 -282.56135    0  202 -285.07824 -282.56135  0.88%     -  407s
     0     0 -282.56135    0  204 -285.07824 -282.56135  0.88%     -  414s
     0     0 -283.33578    0  158 -285.07824 -283.33578  0.61%     -  428s
     0     0 -283.33578    0  160 -285.07824 -283.33578  0.61%     -  442s
     0     0 -283.40548    0  118 -285.07824 -283.40548  0.59%     -  491s
     0     0 -283.40548    0  193 -285.07824 -283.40548  0.59%     -  587s
     0     0 -283.40548    0   52 -285.07824 -283.40548  0.59%     -  593s
     0     0 -283.40548    0  189 -285.07824 -283.40548  0.59%     -  599s
     0     0 -283.40548    0  126 -285.07824 -283.40548  0.59%     -  600s
     0     0 -283.40548    0  126 -285.07824 -283.40548  0.59%     -  601s
     0     0 -283.40548    0  126 -285.07824 -283.40548  0.59%     -  601s
     0     0 -283.40548    0   94 -285.07824 -283.40548  0.59%     -  603s
     0     0 -283.40548    0  134 -285.07824 -283.40548  0.59%     -  604s
     0     0 -283.40548    0   92 -285.07824 -283.40548  0.59%     -  605s
     0     0 -283.40548    0   83 -285.07824 -283.40548  0.59%     -  605s
     0     0 -283.40548    0   93 -285.07824 -283.40548  0.59%     -  605s
     0     0 -283.62619    0   95 -285.07824 -283.62619  0.51%     -  605s
     0     0 -283.77139    0   71 -285.07824 -283.77139  0.46%     -  605s
     0     0 -283.91660    0   75 -285.07824 -283.91660  0.41%     -  605s
     0     0 -283.91660    0   75 -285.07824 -283.91660  0.41%     -  606s
     0     0 -284.20701    0   49 -285.07824 -284.20701  0.31%     -  606s
     0     0 -284.26509    0   47 -285.07824 -284.26509  0.29%     -  606s
     0     0 -284.30381    0   45 -285.07824 -284.30381  0.27%     -  606s
     0     0 -284.38126    0   44 -285.07824 -284.38126  0.24%     -  606s
     0     0 -284.38126    0   45 -285.07824 -284.38126  0.24%     -  606s
     0     0 -284.38126    0   48 -285.07824 -284.38126  0.24%     -  606s
     0     0 -284.38126    0   48 -285.07824 -284.38126  0.24%     -  606s
     0     0 -284.38126    0   46 -285.07824 -284.38126  0.24%     -  606s

Cutting planes:
  Gomory: 10
  MIR: 1
  Zero half: 40

Explored 1 nodes (52449 simplex iterations) in 607.43 seconds
Thread count was 1 (of 80 available processors)

Solution count 6: -285.078 -285.078 -285.078 ... -10892.3

Optimal solution found (tolerance 1.00e-04)
Best objective -2.850782430116e+02, best bound -2.850782430116e+02, gap 0.0000%
